self-compositions/words_1/words_929_SAT.qaiger
aag 45 16 0 1 29
12
20
16
10
18
28
2
30
14
26
22
32
24
8
6
4
90
34 31 14
36 22 7
38 30 15
40 23 6
42 41 39
44 42 37
46 44 35
48 29 12
50 21 4
52 20 5
54 53 51
56 54 49
58 27 10
60 59 56
62 24 8
64 25 9
66 65 63
68 28 13
70 26 11
72 71 69
74 72 67
76 74 60
78 76 46
80 32 17
82 33 16
84 83 81
86 85 78
88 84 79
90 89 87
i0 1 x[5]
i1 2 z[1]
i2 1 x[7]
i3 1 x[4]
i4 2 z[0]
i5 2 z[5]
i6 1 x[0]
i7 2 z[6]
i8 1 x[6]
i9 2 z[4]
i10 2 z[2]
i11 2 z[7]
i12 2 z[3]
i13 1 x[3]
i14 1 x[2]
i15 1 x[1]
o0 bv[0]
c
simplified
  >=
    1
    xor
      1 x
      and
        xor
          1
          2 z
        2 z
