self-compositions/words_1/words_929_SAT.qaiger.qdimacs
p cnf 45 88
a 1 2 3 4 5 6 7 8 0
e 9 10 11 12 13 14 15 16 17 18 19 20 21 22 23 24 25 26 27 28 29 30 31 32 33 34 35 36 37 38 39 40 41 42 43 44 45 0
15 -7 17 0
-15 -17 0
7 -17 0
-11 3 18 0
11 -18 0
-3 -18 0
-15 7 19 0
15 -19 0
-7 -19 0
11 -3 20 0
-11 -20 0
3 -20 0
20 19 21 0
-20 -21 0
-19 -21 0
-21 18 22 0
21 -22 0
-18 -22 0
-22 17 23 0
22 -23 0
-17 -23 0
14 -6 24 0
-14 -24 0
6 -24 0
10 -2 25 0
-10 -25 0
2 -25 0
-10 2 26 0
10 -26 0
-2 -26 0
26 25 27 0
-26 -27 0
-25 -27 0
-27 24 28 0
27 -28 0
-24 -28 0
13 -5 29 0
-13 -29 0
5 -29 0
29 -28 30 0
-29 -30 0
28 -30 0
-12 -4 31 0
12 -31 0
4 -31 0
12 4 32 0
-12 -32 0
-4 -32 0
32 31 33 0
-32 -33 0
-31 -33 0
-14 6 34 0
14 -34 0
-6 -34 0
-13 5 35 0
13 -35 0
-5 -35 0
35 34 36 0
-35 -36 0
-34 -36 0
-36 33 37 0
36 -37 0
-33 -37 0
-37 -30 38 0
37 -38 0
30 -38 0
-38 -23 39 0
38 -39 0
23 -39 0
-16 8 40 0
16 -40 0
-8 -40 0
16 -8 41 0
-16 -41 0
8 -41 0
41 40 42 0
-41 -42 0
-40 -42 0
42 -39 43 0
-42 -43 0
39 -43 0
-42 39 44 0
42 -44 0
-39 -44 0
44 43 45 0
-44 -45 0
-43 -45 0
45 0
